c FILE: i160-014

c SOURCE: From steinlib

c DESCRIPTION: Steinlib instance with 160 nodes and 812 edges.

p edge 160 812
e 1 8
e 1 30
e 1 38
e 1 66
e 1 68
e 1 80
e 1 82
e 1 86
e 1 101
e 1 104
e 1 118
e 1 121
e 1 128
e 1 129
e 1 160
e 2 30
e 2 76
e 2 78
e 2 84
e 2 102
e 2 110
e 2 111
e 2 116
e 2 125
e 2 131
e 2 136
e 2 145
e 3 5
e 3 15
e 3 16
e 3 42
e 3 45
e 3 117
e 3 129
e 3 151
e 4 19
e 4 45
e 4 49
e 4 53
e 4 75
e 4 99
e 4 156
e 5 13
e 5 76
e 5 80
e 5 96
e 5 107
e 5 114
e 5 125
e 5 127
e 5 135
e 5 146
e 5 147
e 6 26
e 6 88
e 6 91
e 6 116
e 6 132
e 7 9
e 7 11
e 7 12
e 7 20
e 7 38
e 7 65
e 7 69
e 7 72
e 7 101
e 7 119
e 7 126
e 7 130
e 8 40
e 8 65
e 8 73
e 8 97
e 8 103
e 8 108
e 8 127
e 8 136
e 8 137
e 8 143
e 8 151
e 8 154
e 9 24
e 9 31
e 9 34
e 9 60
e 9 102
e 9 122
e 9 131
e 10 14
e 10 37
e 10 60
e 10 63
e 10 101
e 10 107
e 10 110
e 10 121
e 10 139
e 10 144
e 10 145
e 10 151
e 10 155
e 11 36
e 11 43
e 11 46
e 11 51
e 11 64
e 11 69
e 11 90
e 11 95
e 11 99
e 11 113
e 11 119
e 11 122
e 11 140
e 12 20
e 12 51
e 12 56
e 12 66
e 12 83
e 12 100
e 12 132
e 12 151
e 13 22
e 13 25
e 13 68
e 13 74
e 13 84
e 13 113
e 13 115
e 13 119
e 13 138
e 13 148
e 13 158
e 14 27
e 14 42
e 14 43
e 14 50
e 14 96
e 14 105
e 14 125
e 14 140
e 15 119
e 15 128
e 15 133
e 15 143
e 15 149
e 15 154
e 16 50
e 16 56
e 16 78
e 16 98
e 16 100
e 16 107
e 16 150
e 16 151
e 16 154
e 16 158
e 16 160
e 17 20
e 17 39
e 17 40
e 17 48
e 17 53
e 17 55
e 17 71
e 17 90
e 17 97
e 17 99
e 17 135
e 17 140
e 17 144
e 17 146
e 18 71
e 18 84
e 18 102
e 18 157
e 19 50
e 19 51
e 19 52
e 19 53
e 19 62
e 19 84
e 19 99
e 19 105
e 19 121
e 19 124
e 19 134
e 20 35
e 20 64
e 20 94
e 20 114
e 20 131
e 20 141
e 20 146
e 20 148
e 20 149
e 21 25
e 21 28
e 21 87
e 21 99
e 21 124
e 21 127
e 21 136
e 22 42
e 22 48
e 22 59
e 22 86
e 22 100
e 22 104
e 22 112
e 22 124
e 22 144
e 22 159
e 23 36
e 23 55
e 23 81
e 23 89
e 23 115
e 23 124
e 23 127
e 23 128
e 23 133
e 24 29
e 24 53
e 24 56
e 24 67
e 24 71
e 24 86
e 24 91
e 24 103
e 24 115
e 24 129
e 24 146
e 24 149
e 24 154
e 24 155
e 25 28
e 25 34
e 25 71
e 25 78
e 25 108
e 25 117
e 25 134
e 25 140
e 25 142
e 25 143
e 25 154
e 26 46
e 26 53
e 26 56
e 26 92
e 26 96
e 26 121
e 26 136
e 26 142
e 26 143
e 27 33
e 27 56
e 27 68
e 27 81
e 27 101
e 27 116
e 27 118
e 27 122
e 27 125
e 27 133
e 27 145
e 27 150
e 28 65
e 28 72
e 28 79
e 28 91
e 28 110
e 28 138
e 28 156
e 28 160
e 29 55
e 29 70
e 29 83
e 29 155
e 30 41
e 30 49
e 30 87
e 30 109
e 30 120
e 30 122
e 30 140
e 30 144
e 31 36
e 31 60
e 31 61
e 31 74
e 31 84
e 31 90
e 31 114
e 31 117
e 31 122
e 32 33
e 32 93
e 32 108
e 32 123
e 32 127
e 32 128
e 32 145
e 32 147
e 32 159
e 33 41
e 33 62
e 33 85
e 33 105
e 33 110
e 33 158
e 33 160
e 34 56
e 34 59
e 34 74
e 34 83
e 34 94
e 34 102
e 34 136
e 34 149
e 34 154
e 35 47
e 35 54
e 35 60
e 35 62
e 35 69
e 35 80
e 35 84
e 35 97
e 35 110
e 35 113
e 35 124
e 35 133
e 35 147
e 36 52
e 36 62
e 36 65
e 36 98
e 36 126
e 36 153
e 37 57
e 37 104
e 37 111
e 37 127
e 37 139
e 37 153
e 37 155
e 38 58
e 38 75
e 38 80
e 38 120
e 38 137
e 38 141
e 38 149
e 38 155
e 38 158
e 39 105
e 39 132
e 39 138
e 40 57
e 40 65
e 40 102
e 40 145
e 41 58
e 41 63
e 41 80
e 41 87
e 41 99
e 41 116
e 41 145
e 41 155
e 42 44
e 42 79
e 42 89
e 42 105
e 42 112
e 42 117
e 42 124
e 42 137
e 42 155
e 42 159
e 43 60
e 43 80
e 43 91
e 44 48
e 44 50
e 44 51
e 44 72
e 44 77
e 44 86
e 44 104
e 44 136
e 44 154
e 45 68
e 45 87
e 45 120
e 45 128
e 45 132
e 46 63
e 46 112
e 46 114
e 46 140
e 46 142
e 47 55
e 47 62
e 47 88
e 47 101
e 47 104
e 47 137
e 48 69
e 48 73
e 48 101
e 48 110
e 48 126
e 48 147
e 48 150
e 48 151
e 48 154
e 48 156
e 49 61
e 49 73
e 49 84
e 49 111
e 49 155
e 50 77
e 50 88
e 50 111
e 50 136
e 51 63
e 51 95
e 51 113
e 51 122
e 51 148
e 51 149
e 51 155
e 52 90
e 52 138
e 52 143
e 53 73
e 53 80
e 53 94
e 53 106
e 53 144
e 53 147
e 53 155
e 53 156
e 54 61
e 54 65
e 54 69
e 54 74
e 54 81
e 54 85
e 54 106
e 54 126
e 54 135
e 54 151
e 55 85
e 55 91
e 55 121
e 55 131
e 55 142
e 55 144
e 55 155
e 55 160
e 56 69
e 56 75
e 56 85
e 56 99
e 56 114
e 56 115
e 56 148
e 56 149
e 56 157
e 57 69
e 57 75
e 57 78
e 57 82
e 57 95
e 57 100
e 57 114
e 57 118
e 57 153
e 57 155
e 58 71
e 58 101
e 58 117
e 58 123
e 58 142
e 59 68
e 59 79
e 59 84
e 59 89
e 59 90
e 59 160
e 60 74
e 60 77
e 60 122
e 60 127
e 60 153
e 60 155
e 60 160
e 61 73
e 61 94
e 61 100
e 61 101
e 61 139
e 61 140
e 61 145
e 61 148
e 62 68
e 62 76
e 62 89
e 62 103
e 62 111
e 62 113
e 62 135
e 62 139
e 62 147
e 63 64
e 63 71
e 63 73
e 63 85
e 63 98
e 63 105
e 63 107
e 63 115
e 63 146
e 64 66
e 64 86
e 64 91
e 64 100
e 64 126
e 64 129
e 64 137
e 65 100
e 65 106
e 65 115
e 65 119
e 65 126
e 65 127
e 65 136
e 65 158
e 66 75
e 66 86
e 66 98
e 66 159
e 67 111
e 67 149
e 67 153
e 68 81
e 68 98
e 68 117
e 68 125
e 68 137
e 69 97
e 69 109
e 69 118
e 69 127
e 69 137
e 69 138
e 69 142
e 70 74
e 70 98
e 70 111
e 70 121
e 70 137
e 70 150
e 71 76
e 71 79
e 71 103
e 71 111
e 71 112
e 71 122
e 72 95
e 72 101
e 72 107
e 72 130
e 73 129
e 73 133
e 73 134
e 73 143
e 74 96
e 74 139
e 74 143
e 74 157
e 75 151
e 75 156
e 76 107
e 76 132
e 77 97
e 77 102
e 77 104
e 77 112
e 77 117
e 77 132
e 77 136
e 77 145
e 77 149
e 78 83
e 78 85
e 78 104
e 78 105
e 78 108
e 78 114
e 78 133
e 78 144
e 78 157
e 79 85
e 79 103
e 79 107
e 79 149
e 79 153
e 79 157
e 80 92
e 80 117
e 80 120
e 80 127
e 81 103
e 81 127
e 81 131
e 81 145
e 82 104
e 82 125
e 82 129
e 82 134
e 82 152
e 83 91
e 83 111
e 83 116
e 83 122
e 84 87
e 84 94
e 84 95
e 84 102
e 84 105
e 84 106
e 84 111
e 84 124
e 84 145
e 84 150
e 85 90
e 85 123
e 85 126
e 85 131
e 85 150
e 85 156
e 85 160
e 86 138
e 86 152
e 86 154
e 87 91
e 87 92
e 87 99
e 87 103
e 87 113
e 87 126
e 87 152
e 88 90
e 88 102
e 88 106
e 88 107
e 88 108
e 88 116
e 88 137
e 89 90
e 89 104
e 89 124
e 89 125
e 89 132
e 89 137
e 89 138
e 89 151
e 90 117
e 90 126
e 91 100
e 91 121
e 91 136
e 92 111
e 92 114
e 92 149
e 92 160
e 93 118
e 93 128
e 93 148
e 93 154
e 93 157
e 94 125
e 95 118
e 95 148
e 95 149
e 96 105
e 96 115
e 96 118
e 96 157
e 96 158
e 97 115
e 97 129
e 98 109
e 98 130
e 98 135
e 99 122
e 99 123
e 99 124
e 99 142
e 99 143
e 100 114
e 100 127
e 100 152
e 101 113
e 101 127
e 101 135
e 101 156
e 102 141
e 102 149
e 103 137
e 103 148
e 103 151
e 104 146
e 104 160
e 105 106
e 105 109
e 105 112
e 106 107
e 106 126
e 106 151
e 106 156
e 107 145
e 107 155
e 108 114
e 108 116
e 108 121
e 108 133
e 108 152
e 109 136
e 110 118
e 110 152
e 110 156
e 111 137
e 111 144
e 112 136
e 112 141
e 112 157
e 113 140
e 114 124
e 114 154
e 115 133
e 115 159
e 116 119
e 116 121
e 116 122
e 116 156
e 117 119
e 118 127
e 118 139
e 118 143
e 119 125
e 120 122
e 120 124
e 120 153
e 120 156
e 121 143
e 121 145
e 121 146
e 121 157
e 122 130
e 122 132
e 122 133
e 122 144
e 122 158
e 123 130
e 124 134
e 124 137
e 124 139
e 124 143
e 124 147
e 126 127
e 126 139
e 128 141
e 129 143
e 129 146
e 130 159
e 131 145
e 131 155
e 132 145
e 132 153
e 134 151
e 134 160
e 135 136
e 135 148
e 135 151
e 136 138
e 137 143
e 137 160
e 144 146
e 144 157
e 145 146
e 145 148
e 146 154
e 147 154
e 147 155
e 147 160
e 151 152
e 151 159
e 151 160
e 152 153
e 153 158
e 154 157
e 154 158
e 155 157
e 156 159
